; Copyright (c) 2026 The RIINA Authors. All rights reserved.
; Copyright (c) 2026 The RIINA Authors.
; Auto-generated from 02_FORMAL/coq/domains/MobileBridgeVerification.v (32 assertions)
; Generated by scripts/generate-full-stack.py
; Module: MobileBridgeVerification

(set-logic ALL)
(set-option :produce-models true)

; RValue (matches Coq: Inductive RValue)
(declare-datatypes ((RValue 0)) (((RVInt) (RVBool) (RVString) (RVUnit) (RVSecret))))

; JNIValue (matches Coq: Inductive JNIValue)
(declare-datatypes ((JNIValue 0)) (((JInt) (JBoolean) (JString) (JVoid) (JObject) (SwInt) (SwBool) (SwString) (SwVoid) (SwOptional))))

; BridgeEffect (matches Coq: Inductive BridgeEffect)
(declare-datatypes ((BridgeEffect 0)) (((BPure) (BIO) (BNet) (BUI))))

; BridgeResult (matches Coq: Inductive BridgeResult)
(declare-datatypes ((BridgeResult 0)) (((BROk) (BRError))))

; SwiftTypeTag (matches Coq: Inductive SwiftTypeTag)
(declare-datatypes ((SwiftTypeTag 0)) (((STInt) (STBool) (STString) (STVoid) (STOptional))))

; BridgeSecLabel (matches Coq: Inductive BridgeSecLabel)
(declare-datatypes ((BridgeSecLabel 0)) (((BPublic) (BSecret))))

; cap_allows (matches Coq: Definition cap_allows)
(define-fun cap_allows ((cap CapToken) (eff BridgeEffect)) Bool
  true)

; bridge_call_safe (matches Coq: Definition bridge_call_safe)
(define-fun bridge_call_safe ((call BridgeCall)) Prop
  true)

; error_safe (matches Coq: Definition error_safe)
(define-fun error_safe ((result BridgeResult)) Prop
  true)

; no_secret_in_error (matches Coq: Definition no_secret_in_error)
(define-fun no_secret_in_error ((result BridgeResult)) Prop
  true)

; c_to_jni_string (matches Coq: Definition c_to_jni_string)
(define-fun c_to_jni_string ((s CString)) JNIString
  true)

; jni_to_c_string (matches Coq: Definition jni_to_c_string)
(define-fun jni_to_c_string ((js JNIString)) CString
  true)

; swift_value_tag (matches Coq: Definition swift_value_tag)
(define-fun swift_value_tag ((sv SwiftValue)) SwiftTypeTag
  true)

; callback_ret_safe (matches Coq: Definition callback_ret_safe)
(define-fun callback_ret_safe ((cb Callback)) Prop
  true)

; callback_args_safe (matches Coq: Definition callback_args_safe)
(define-fun callback_args_safe ((cb Callback)) Prop
  true)

; callback_safe (matches Coq: Definition callback_safe)
(define-fun callback_safe ((cb Callback)) Prop
  true)

; callback_rejected (matches Coq: Definition callback_rejected)
(define-fun callback_rejected ((cb Callback)) Prop
  true)

; bridge_001_jni_roundtrip_int (matches Coq: Theorem bridge_001_jni_roundtrip_int)
(assert (= true true)) ; bridge_001_jni_roundtrip_int [untranslatable]

; bridge_001_jni_roundtrip_bool (matches Coq: Theorem bridge_001_jni_roundtrip_bool)
(assert (= true true)) ; bridge_001_jni_roundtrip_bool [untranslatable]

; bridge_001_swift_roundtrip_int (matches Coq: Theorem bridge_001_swift_roundtrip_int)
(assert (= true true)) ; bridge_001_swift_roundtrip_int [untranslatable]

; bridge_001_swift_roundtrip_bool (matches Coq: Theorem bridge_001_swift_roundtrip_bool)
(assert (= true true)) ; bridge_001_swift_roundtrip_bool [untranslatable]

; bridge_002_jni_pure_always_allowed (matches Coq: Theorem bridge_002_jni_pure_always_allowed)
(assert (= true true)) ; bridge_002_jni_pure_always_allowed [untranslatable]

; bridge_002_jni_invalid_blocks_all (matches Coq: Theorem bridge_002_jni_invalid_blocks_all)
(assert (= true true)) ; bridge_002_jni_invalid_blocks_all [untranslatable]

; bridge_002_jni_io_requires_io_cap (matches Coq: Theorem bridge_002_jni_io_requires_io_cap)
(assert (= true true)) ; bridge_002_jni_io_requires_io_cap [untranslatable]

; bridge_003_swift_pure_always_allowed (matches Coq: Theorem bridge_003_swift_pure_always_allowed)
(assert (= true true)) ; bridge_003_swift_pure_always_allowed [untranslatable]

; bridge_003_swift_net_requires_net (matches Coq: Theorem bridge_003_swift_net_requires_net)
(assert (= true true)) ; bridge_003_swift_net_requires_net [untranslatable]

; bridge_003_swift_ui_requires_ui (matches Coq: Theorem bridge_003_swift_ui_requires_ui)
(assert (= true true)) ; bridge_003_swift_ui_requires_ui [untranslatable]

; bridge_004_safe_call_requires_cap (matches Coq: Theorem bridge_004_safe_call_requires_cap)
(assert (= true true)) ; bridge_004_safe_call_requires_cap [untranslatable]

; bridge_004_pure_call_always_safe (matches Coq: Theorem bridge_004_pure_call_always_safe)
(assert (= true true)) ; bridge_004_pure_call_always_safe [untranslatable]

; bridge_005_error_is_safe (matches Coq: Theorem bridge_005_error_is_safe)
(assert (= true true)) ; bridge_005_error_is_safe [untranslatable]

; bridge_005_ok_is_safe (matches Coq: Theorem bridge_005_ok_is_safe)
(assert (= true true)) ; bridge_005_ok_is_safe [untranslatable]

; bridge_005_no_secret_leak (matches Coq: Theorem bridge_005_no_secret_leak)
(assert (= true true)) ; bridge_005_no_secret_leak [untranslatable]

; bridge_006_jni_string_roundtrip_len (matches Coq: Theorem bridge_006_jni_string_roundtrip_len)
(assert (= true true)) ; bridge_006_jni_string_roundtrip_len [untranslatable]

; bridge_006_jni_string_roundtrip_hash (matches Coq: Theorem bridge_006_jni_string_roundtrip_hash)
(assert (= true true)) ; bridge_006_jni_string_roundtrip_hash [untranslatable]

; bridge_006_jni_string_is_utf8 (matches Coq: Theorem bridge_006_jni_string_is_utf8)
(assert (= true true)) ; bridge_006_jni_string_is_utf8 [untranslatable]

; bridge_006_jni_string_full_roundtrip (matches Coq: Theorem bridge_006_jni_string_full_roundtrip)
(assert (= true true)) ; bridge_006_jni_string_full_roundtrip [untranslatable]

; bridge_006_rvalue_string_jni_roundtrip (matches Coq: Theorem bridge_006_rvalue_string_jni_roundtrip)
(assert (= true true)) ; bridge_006_rvalue_string_jni_roundtrip [untranslatable]

; bridge_007_swift_type_preserved_int (matches Coq: Theorem bridge_007_swift_type_preserved_int)
(assert (= true true)) ; bridge_007_swift_type_preserved_int [untranslatable]

; bridge_007_swift_type_preserved_bool (matches Coq: Theorem bridge_007_swift_type_preserved_bool)
(assert (= true true)) ; bridge_007_swift_type_preserved_bool [untranslatable]

; bridge_007_swift_type_preserved_string (matches Coq: Theorem bridge_007_swift_type_preserved_string)
(assert (= true true)) ; bridge_007_swift_type_preserved_string [untranslatable]

; bridge_007_swift_type_preserved_unit (matches Coq: Theorem bridge_007_swift_type_preserved_unit)
(assert (= (swift_value_tag SwVoid) (swift_type_of RVUnit))) ; bridge_007_swift_type_preserved_unit

; bridge_007_marshal_swift_type_safe (matches Coq: Theorem bridge_007_marshal_swift_type_safe)
(assert (= true true)) ; bridge_007_marshal_swift_type_safe [untranslatable]

; bridge_007_unmarshal_swift_type_safe (matches Coq: Theorem bridge_007_unmarshal_swift_type_safe)
(assert (= true true)) ; bridge_007_unmarshal_swift_type_safe [untranslatable]

; bridge_007_rvalue_string_swift_roundtrip (matches Coq: Theorem bridge_007_rvalue_string_swift_roundtrip)
(assert (= true true)) ; bridge_007_rvalue_string_swift_roundtrip [untranslatable]

; bridge_008_pure_callback_safe (matches Coq: Theorem bridge_008_pure_callback_safe)
(assert (= true true)) ; bridge_008_pure_callback_safe [untranslatable]

; bridge_008_public_args_safe (matches Coq: Theorem bridge_008_public_args_safe)
(assert (= true true)) ; bridge_008_public_args_safe [untranslatable]

; bridge_008_secret_ret_rejected (matches Coq: Theorem bridge_008_secret_ret_rejected)
(assert (= true true)) ; bridge_008_secret_ret_rejected [untranslatable]

; bridge_008_safe_not_rejected (matches Coq: Theorem bridge_008_safe_not_rejected)
(assert (= true true)) ; bridge_008_safe_not_rejected [untranslatable]

; bridge_008_no_secret_through_safe_callback (matches Coq: Theorem bridge_008_no_secret_through_safe_callback)
(assert (= true true)) ; bridge_008_no_secret_through_safe_callback [untranslatable]

; Verify all assertions are satisfiable
(check-sat)
(exit)
